objective value:                                    0
z[18]                                               1 	(obj:0)
z[19]                                               1 	(obj:0)
r[11,0,9]                            9.96456492496258 	(obj:0)
r[11,1,9]                            6.76149455170516 	(obj:0)
r[11,0,10]                           7.99207408216881 	(obj:0)
r[11,1,10]                           4.86685420288242 	(obj:0)
r[12,0,0]                                         100 	(obj:0)
r[12,1,0]                                          42 	(obj:0)
r[12,0,1]                            53.2767290721139 	(obj:0)
r[12,1,1]                                     34.4784 	(obj:0)
r[12,0,2]                            37.3061548162671 	(obj:0)
r[12,1,2]                                  27.5322024 	(obj:0)
r[12,0,3]                            27.8306351497773 	(obj:0)
r[12,1,3]                               21.1173889164 	(obj:0)
r[12,0,4]                            23.6107334490219 	(obj:0)
r[12,1,4]                            18.1858576915328 	(obj:0)
r[12,0,5]                            18.3129688885638 	(obj:0)
r[12,1,5]                            14.5586974859965 	(obj:0)
r[12,0,6]                            15.7552008004772 	(obj:0)
r[12,1,6]                             12.094992770041 	(obj:0)
r[12,0,7]                            12.9752452449337 	(obj:0)
r[12,1,7]                            9.60710846067459 	(obj:0)
r[12,0,8]                            10.7202543210404 	(obj:0)
r[12,1,8]                            7.46565239517961 	(obj:0)
r[12,0,9]                             8.9039418239696 	(obj:0)
r[12,1,9]                            5.64192128136326 	(obj:0)
r[12,0,10]                           7.23485052569398 	(obj:0)
r[12,1,10]                           3.96343122433877 	(obj:0)
r[13,0,0]                                         100 	(obj:0)
r[13,1,0]                                          42 	(obj:0)
r[13,0,1]                            78.9618683470212 	(obj:0)
r[13,1,1]                                     34.4784 	(obj:0)
r[13,0,2]                            63.0380508821993 	(obj:0)
r[13,1,2]                             28.392484211556 	(obj:0)
r[13,0,3]                            51.1151778889146 	(obj:0)
r[13,1,3]                            23.2043042597462 	(obj:0)
r[13,0,4]                            40.9349057325089 	(obj:0)
r[13,1,4]                            18.6878573952786 	(obj:0)
r[13,0,5]                             34.246954056502 	(obj:0)
r[13,1,5]                            15.0020830539283 	(obj:0)
r[13,0,6]                            29.2124164836046 	(obj:0)
r[13,1,6]                            11.9509994706283 	(obj:0)
r[13,0,7]                            25.4246963386575 	(obj:0)
r[13,1,7]                            9.48110968602937 	(obj:0)
r[13,0,8]                            22.2333280040831 	(obj:0)
r[13,1,8]                            7.35453927380247 	(obj:0)
r[13,0,9]                            19.5564462316214 	(obj:0)
r[13,1,9]                            5.54831892707726 	(obj:0)
r[13,0,10]                           7.16858116986862 	(obj:0)
r[13,1,10]                           3.88841057601601 	(obj:0)
r[14,0,0]                                         100 	(obj:0)
r[14,1,0]                                          42 	(obj:0)
r[14,0,1]                            66.2683376765017 	(obj:0)
r[14,1,1]                                     34.4784 	(obj:0)
r[14,0,2]                            50.0592457363207 	(obj:0)
r[14,1,2]                            28.3924842117371 	(obj:0)
r[14,0,3]                            37.4015059748506 	(obj:0)
r[14,1,3]                             23.291555369018 	(obj:0)
r[14,0,4]                            29.4181056581252 	(obj:0)
r[14,1,4]                            18.8765101347082 	(obj:0)
r[14,0,5]                            23.5695051165241 	(obj:0)
r[14,1,5]                            15.1665307284709 	(obj:0)
r[14,0,6]                            17.0869499776089 	(obj:0)
r[14,1,6]                            12.0901876943609 	(obj:0)
r[14,0,7]                            14.1922058433843 	(obj:0)
r[14,1,7]                            9.59638451619103 	(obj:0)
r[14,0,8]                            11.8271586144084 	(obj:0)
r[14,1,8]                             7.4463892515748 	(obj:0)
r[14,0,9]                              8.888135451888 	(obj:0)
r[14,1,9]                             5.6256938946243 	(obj:0)
r[14,0,10]                           7.22339760879407 	(obj:0)
r[14,1,10]                           3.95041907419554 	(obj:0)
r[15,0,0]                                         100 	(obj:0)
r[15,1,0]                                          42 	(obj:0)
r[15,0,1]                            60.0045403451714 	(obj:0)
r[15,1,1]                                     34.4784 	(obj:0)
r[15,0,2]                            41.6405672043266 	(obj:0)
r[15,1,2]                                  27.5322024 	(obj:0)
r[15,0,3]                            31.5198340197775 	(obj:0)
r[15,1,3]                            22.4405818057382 	(obj:0)
r[15,0,4]                            24.1420433881268 	(obj:0)
r[15,1,4]                             18.125093891284 	(obj:0)
r[15,0,5]                            18.8240023412395 	(obj:0)
r[15,1,5]                            14.5081547104224 	(obj:0)
r[15,0,6]                            15.0343398648112 	(obj:0)
r[15,1,6]                            11.5206649089064 	(obj:0)
r[15,0,7]                            12.4394929112249 	(obj:0)
r[15,1,7]                            9.13891326608121 	(obj:0)
r[15,0,8]                            10.3362487821511 	(obj:0)
r[15,1,8]                            7.09442886306324 	(obj:0)
r[15,0,9]                            8.59679814607398 	(obj:0)
r[15,1,9]                            5.32920037008116 	(obj:0)
r[15,0,10]                           7.01142008484403 	(obj:0)
r[15,1,10]                           3.71314035866759 	(obj:0)
r[16,0,0]                                         100 	(obj:0)
r[16,1,0]                                          42 	(obj:0)
r[16,0,1]                            45.1684441800944 	(obj:0)
r[16,1,1]                            37.8288714156663 	(obj:0)
r[16,0,2]                            32.2279770045731 	(obj:0)
r[16,1,2]                            31.5453415019502 	(obj:0)
r[16,0,3]                            23.1383988567351 	(obj:0)
r[16,1,3]                            26.2032190765297 	(obj:0)
r[16,0,4]                            18.1665995524235 	(obj:0)
r[16,1,4]                            22.0452707640006 	(obj:0)
r[16,0,5]                            13.2277560296028 	(obj:0)
r[16,1,5]                            9.72242055147681 	(obj:0)
r[16,0,6]                            10.5078658779123 	(obj:0)
r[16,1,6]                            7.35631357037725 	(obj:0)
r[16,0,7]                            8.37147006571284 	(obj:0)
r[16,1,7]                            5.35078294523818 	(obj:0)
r[16,0,8]                            6.49493041433382 	(obj:0)
r[16,1,8]                            3.86034267868714 	(obj:0)
r[16,0,9]                            5.43163226197357 	(obj:0)
r[16,1,9]                            2.62891723321001 	(obj:0)
r[16,0,10]                            4.5113584579573 	(obj:0)
r[16,1,10]                           1.65029950279125 	(obj:0)
r[17,0,0]                                         100 	(obj:0)
r[17,1,0]                                          42 	(obj:0)
r[17,0,1]                             57.197892627114 	(obj:0)
r[17,1,1]                                     34.4784 	(obj:0)
r[17,0,2]                            41.6781474277337 	(obj:0)
r[17,1,2]                            28.3924829100294 	(obj:0)
r[17,0,3]                            37.2512111310001 	(obj:0)
r[17,1,3]                            24.8190276249869 	(obj:0)
r[17,0,4]                            33.4663257806137 	(obj:0)
r[17,1,4]                            21.6979327615236 	(obj:0)
r[17,0,5]                            23.6581531110425 	(obj:0)
r[17,1,5]                            17.3998783472925 	(obj:0)
r[17,0,6]                            19.0424164566028 	(obj:0)
r[17,1,6]                            14.0362280550395 	(obj:0)
r[17,0,7]                            12.7314759948731 	(obj:0)
r[17,1,7]                            10.8992006948043 	(obj:0)
r[17,0,8]                            10.3017996521874 	(obj:0)
r[17,1,8]                            8.56016932795221 	(obj:0)
r[17,0,9]                            8.36803967167702 	(obj:0)
r[17,1,9]                            6.56394885509759 	(obj:0)
r[17,0,10]                           6.84378865122265 	(obj:0)
r[17,1,10]                           4.88232085637631 	(obj:0)
r[18,0,0]                                         100 	(obj:0)
r[18,1,0]                                          42 	(obj:0)
r[18,1,1]                                     34.4784 	(obj:0)
r[18,1,2]                                  27.5322024 	(obj:0)
r[18,1,3]                               21.1173889164 	(obj:0)
r[18,1,4]                            15.1933086642954 	(obj:0)
r[18,1,5]                            9.72242055147681 	(obj:0)
r[18,1,6]                            4.67005537928883 	(obj:0)
r[18,1,7]                         0.00419614277323532 	(obj:0)
r[19,0,0]                                         100 	(obj:0)
r[19,1,0]                                          42 	(obj:0)
r[19,1,1]                                     34.4784 	(obj:0)
r[19,1,2]                                  27.5322024 	(obj:0)
r[19,1,3]                               21.1173889164 	(obj:0)
r[19,1,4]                            15.1933086642954 	(obj:0)
r[19,1,5]                            9.72242055147681 	(obj:0)
r[19,1,6]                            4.67005537928883 	(obj:0)
r[19,1,7]                         0.00419614277323529 	(obj:0)
r[19,1,10]                                         42 	(obj:0)
y[0,6]                              0.884541836507913 	(obj:0)
y[0,7]                              0.139539715009919 	(obj:0)
y[0,8]                               1.30412242469609 	(obj:0)
y[0,9]                               1.10753130775476 	(obj:0)
y[0,10]                             0.908069012995291 	(obj:0)
y[1,7]                               1.43536939347366 	(obj:0)
y[1,8]                                1.2500050644517 	(obj:0)
y[1,9]                               1.05105387881137 	(obj:0)
y[1,10]                             0.853508520650497 	(obj:0)
y[2,3]                               1.50560807295398 	(obj:0)
y[2,4]                                1.3297495341012 	(obj:0)
y[2,7]                               1.09973550926841 	(obj:0)
y[2,9]                              0.884885599054077 	(obj:0)
y[2,10]                              0.69927312699997 	(obj:0)
y[3,2]                               1.44828007676026 	(obj:0)
y[3,4]                               1.34019046473271 	(obj:0)
y[3,5]                               1.14588460678821 	(obj:0)
y[3,6]                              0.945785519245744 	(obj:0)
y[3,9]                              0.727341719522777 	(obj:0)
y[3,10]                             0.560891956963622 	(obj:0)
y[4,6]                               1.45309545173064 	(obj:0)
y[4,7]                               1.26988771223372 	(obj:0)
y[4,8]                               1.07165794612398 	(obj:0)
y[4,9]                               0.87328097227746 	(obj:0)
y[4,10]                             0.688831237473287 	(obj:0)
y[5,5]                               1.47071970573566 	(obj:0)
y[5,6]                               1.28981625052672 	(obj:0)
y[5,8]                               1.07519294980083 	(obj:0)
y[5,9]                              0.876688425980178 	(obj:0)
y[5,10]                             0.691893015090429 	(obj:0)
y[6,1]                               1.52638518161366 	(obj:0)
y[6,7]                               1.26351997334462 	(obj:0)
y[6,8]                               1.06504085225167 	(obj:0)
y[6,9]                              0.866914589185461 	(obj:0)
y[6,10]                             0.683120141521624 	(obj:0)
y[7,1]                              0.220474242984399 	(obj:0)
y[7,3]                              0.865822874001188 	(obj:0)
y[7,5]                              0.780051591081275 	(obj:0)
y[7,7]                               1.22876661669178 	(obj:0)
y[7,8]                                1.0292272522305 	(obj:0)
y[7,9]                              0.484842670456556 	(obj:0)
y[7,10]                             0.709275917656339 	(obj:0)
y[8,4]                               1.48822843184145 	(obj:0)
y[8,7]                               1.27363469868276 	(obj:0)
y[8,8]                               0.39832320538568 	(obj:0)
y[8,9]                              0.994240272795365 	(obj:0)
y[8,10]                             0.799750335343527 	(obj:0)
y[9,3]                                 1.004963616309 	(obj:0)
y[9,4]                              0.144241269929433 	(obj:0)
y[9,5]                               1.35225433344161 	(obj:0)
y[9,6]                               1.15884430437129 	(obj:0)
y[9,9]                              0.926447857107969 	(obj:0)
y[9,10]                             0.737012198673938 	(obj:0)
y[10,1]                          1.27649493641212e-05 	(obj:0)
y[10,2]                              1.47546640376072 	(obj:0)
y[10,3]                              1.25613625826219 	(obj:0)
y[10,4]                              1.10236076809009 	(obj:0)
y[10,5]                             0.956816009361666 	(obj:0)
y[10,6]                             0.818252275731527 	(obj:0)
y[10,7]                             0.831258897770714 	(obj:0)
y[10,8]                              0.60991379615966 	(obj:0)
y[10,9]                             0.540597445166758 	(obj:0)
y[10,10]                            0.546974160689675 	(obj:0)
y[11,1]                             0.731477176637994 	(obj:0)
y[11,2]                              1.39710397100103 	(obj:0)
y[11,3]                              1.28451358359209 	(obj:0)
y[11,4]                              1.07924768716093 	(obj:0)
y[11,5]                             0.646223350102931 	(obj:0)
y[11,6]                             0.807405122325782 	(obj:0)
y[11,7]                             0.668583357604603 	(obj:0)
y[11,8]                             0.610885745734526 	(obj:0)
y[11,9]                              0.54306755256549 	(obj:0)
y[11,10]                            0.549854696853214 	(obj:0)
y[12,1]                              1.53583283451226 	(obj:0)
y[12,2]                              1.35314221613756 	(obj:0)
y[12,3]                              1.16922307442036 	(obj:0)
y[12,4]                             0.525369649805447 	(obj:0)
y[12,5]                             0.892591653546519 	(obj:0)
y[12,6]                              0.53890792745579 	(obj:0)
y[12,7]                             0.623799346290723 	(obj:0)
y[12,8]                             0.561481943414519 	(obj:0)
y[12,9]                             0.500043395443158 	(obj:0)
y[12,10]                            0.497757716167746 	(obj:0)
y[13,1]                              1.53583283451226 	(obj:0)
y[13,2]                              1.37657412712335 	(obj:0)
y[13,3]                              1.20405385613802 	(obj:0)
y[13,4]                              1.09433835872137 	(obj:0)
y[13,5]                             0.900659980284027 	(obj:0)
y[13,6]                             0.759849991886036 	(obj:0)
y[13,7]                             0.621013303431467 	(obj:0)
y[13,8]                                0.559387433631 	(obj:0)
y[13,9]                             0.496446344223284 	(obj:0)
y[13,10]                            0.493198384486961 	(obj:0)
y[14,1]                              1.53583283451226 	(obj:0)
y[14,2]                              1.37657412705107 	(obj:0)
y[14,3]                              1.16922307406037 	(obj:0)
y[14,4]                              1.05119411120952 	(obj:0)
y[14,5]                             0.904561429513816 	(obj:0)
y[14,6]                              0.76491155025229 	(obj:0)
y[14,7]                             0.626308910000515 	(obj:0)
y[14,8]                             0.565218303044957 	(obj:0)
y[14,9]                             0.499419792097815 	(obj:0)
y[14,10]                            0.496969755485032 	(obj:0)
y[15,1]                              1.53583283495368 	(obj:0)
y[15,2]                              1.35314221573558 	(obj:0)
y[15,3]                              1.19177928569335 	(obj:0)
y[15,4]                              1.03743848555498 	(obj:0)
y[15,5]                             0.890367065141042 	(obj:0)
y[15,6]                             0.749547291883744 	(obj:0)
y[15,7]                             0.598970370177167 	(obj:0)
y[15,8]                             0.537068877510082 	(obj:0)
y[15,9]                             0.488025822338423 	(obj:0)
y[15,10]                            0.482385701837269 	(obj:0)
y[16,1]                              0.38248646081187 	(obj:0)
y[16,2]                              1.35314221573558 	(obj:0)
y[16,3]                              1.16922307406037 	(obj:0)
y[16,4]                             0.859641538193465 	(obj:0)
y[16,5]                             0.776711569225004 	(obj:0)
y[16,6]                             0.647641440683264 	(obj:0)
y[16,7]                             0.575957140521043 	(obj:0)
y[16,8]                             0.431578990515096 	(obj:0)
y[16,9]                             0.373696299623782 	(obj:0)
y[16,10]                            0.310381461907462 	(obj:0)
y[17,1]                              1.53583283451226 	(obj:0)
y[17,2]                              1.37657464669485 	(obj:0)
y[17,3]                             0.559453230509081 	(obj:0)
y[17,4]                             0.487999700659412 	(obj:0)
y[17,5]                              1.05315870577823 	(obj:0)
y[17,6]                             0.811401037399256 	(obj:0)
y[17,7]                             0.823655055498896 	(obj:0)
y[17,8]                             0.600895215049716 	(obj:0)
y[17,9]                              0.53547605559532 	(obj:0)
y[17,10]                            0.470852659204118 	(obj:0)
r[0,0,0]                                           41 	(obj:0)
r[0,0,1]                                       40.098 	(obj:0)
r[0,0,2]                                    39.215844 	(obj:0)
r[0,0,3]                                 38.353095432 	(obj:0)
r[0,0,4]                              37.509327332496 	(obj:0)
r[0,0,5]                             36.6841221311811 	(obj:0)
r[0,0,6]                             31.8373688769635 	(obj:0)
r[0,0,7]                             30.4996688832199 	(obj:0)
r[0,0,8]                             23.8727490542021 	(obj:0)
r[0,0,9]                             18.2894530924937 	(obj:0)
r[0,0,10]                            13.7399339421093 	(obj:0)
r[1,0,0]                                           41 	(obj:0)
r[1,0,1]                                       40.098 	(obj:0)
r[1,0,2]                                    39.215844 	(obj:0)
r[1,0,3]                                 38.353095432 	(obj:0)
r[1,0,4]                              37.509327332496 	(obj:0)
r[1,0,5]                             36.6841221311811 	(obj:0)
r[1,0,6]                             35.8770714442951 	(obj:0)
r[1,0,7]                             28.5324438525264 	(obj:0)
r[1,0,8]                             22.1959569584199 	(obj:0)
r[1,0,9]                             16.9074828408031 	(obj:0)
r[1,0,10]                            12.6375448044946 	(obj:0)
r[2,0,0]                                           41 	(obj:0)
r[2,0,1]                                       40.098 	(obj:0)
r[2,0,2]                                    39.215844 	(obj:0)
r[2,0,3]                             31.4769833628192 	(obj:0)
r[2,0,4]                              24.711523606597 	(obj:0)
r[2,0,5]                             24.1678700872519 	(obj:0)
r[2,0,6]                             23.6361769453323 	(obj:0)
r[2,0,7]                             18.0936889817062 	(obj:0)
r[2,0,8]                             17.6956278241086 	(obj:0)
r[2,0,9]                             13.2650514810983 	(obj:0)
r[2,0,10]                            9.77963997750525 	(obj:0)
r[3,0,0]                                           41 	(obj:0)
r[3,0,1]                                       40.098 	(obj:0)
r[3,0,2]                             32.6015488894359 	(obj:0)
r[3,0,3]                             31.8843148138683 	(obj:0)
r[3,0,4]                             25.0622100355289 	(obj:0)
r[3,0,5]                             19.2775864155455 	(obj:0)
r[3,0,6]                             14.5340770480082 	(obj:0)
r[3,0,7]                              14.214327352952 	(obj:0)
r[3,0,8]                             13.9016121511871 	(obj:0)
r[3,0,9]                             10.2740070508004 	(obj:0)
r[3,0,10]                            7.48638532822996 	(obj:0)
r[4,0,0]                                           41 	(obj:0)
r[4,0,1]                                       40.098 	(obj:0)
r[4,0,2]                                    39.215844 	(obj:0)
r[4,0,3]                                 38.353095432 	(obj:0)
r[4,0,4]                              37.509327332496 	(obj:0)
r[4,0,5]                             36.6841221311811 	(obj:0)
r[4,0,6]                             29.2407845162412 	(obj:0)
r[4,0,7]                             22.7979100751125 	(obj:0)
r[4,0,8]                             17.4020942135119 	(obj:0)
r[4,0,9]                             13.0309739404234 	(obj:0)
r[4,0,10]                            9.59840025219363 	(obj:0)
r[5,0,0]                                           41 	(obj:0)
r[5,0,1]                                       40.098 	(obj:0)
r[5,0,2]                                    39.215844 	(obj:0)
r[5,0,3]                                 38.353095432 	(obj:0)
r[5,0,4]                              37.509327332496 	(obj:0)
r[5,0,5]                             29.9673452350863 	(obj:0)
r[5,0,6]                             23.4174728237589 	(obj:0)
r[5,0,7]                             22.9022884216362 	(obj:0)
r[5,0,8]                             17.4880318746198 	(obj:0)
r[5,0,9]                             13.0994591319267 	(obj:0)
r[5,0,10]                            9.65139563110629 	(obj:0)
r[6,0,0]                                           41 	(obj:0)
r[6,0,1]                                     32.42544 	(obj:0)
r[6,0,2]                                  31.71208032 	(obj:0)
r[6,0,3]                               31.01441455296 	(obj:0)
r[6,0,4]                             30.3320974327949 	(obj:0)
r[6,0,5]                             29.6647912892734 	(obj:0)
r[6,0,6]                             29.0121658809094 	(obj:0)
r[6,0,7]                             22.6034025132645 	(obj:0)
r[6,0,8]                             17.2420860857393 	(obj:0)
r[6,0,9]                              12.903561263043 	(obj:0)
r[6,0,10]                            9.49987322892684 	(obj:0)
r[7,0,0]                                           41 	(obj:0)
r[7,0,1]                             39.0910941322903 	(obj:0)
r[7,0,2]                             38.2310900613799 	(obj:0)
r[7,0,3]                             33.4357930144661 	(obj:0)
r[7,0,4]                             32.7002055681478 	(obj:0)
r[7,0,5]                             28.4183054291804 	(obj:0)
r[7,0,6]                             27.7931027097384 	(obj:0)
r[7,0,7]                             21.5698773116928 	(obj:0)
r[7,0,8]                             16.3948591498989 	(obj:0)
r[7,0,9]                              13.490651891677 	(obj:0)
r[7,0,10]                            9.95459443412365 	(obj:0)
r[8,0,0]                                           41 	(obj:0)
r[8,0,1]                                       40.098 	(obj:0)
r[8,0,2]                                    39.215844 	(obj:0)
r[8,0,3]                                 38.353095432 	(obj:0)
r[8,0,4]                             30.7125880842761 	(obj:0)
r[8,0,5]                              30.036911146422 	(obj:0)
r[8,0,6]                             29.3760991012007 	(obj:0)
r[8,0,7]                             22.9131352520901 	(obj:0)
r[8,0,8]                             20.5899041975477 	(obj:0)
r[8,0,9]                             15.5962309793453 	(obj:0)
r[8,0,10]                            11.6006541162858 	(obj:0)
r[9,0,0]                                           41 	(obj:0)
r[9,0,1]                                       40.098 	(obj:0)
r[9,0,2]                                    39.215844 	(obj:0)
r[9,0,3]                             33.7634265963168 	(obj:0)
r[9,0,4]                             32.3618813314301 	(obj:0)
r[9,0,5]                             25.4741744013108 	(obj:0)
r[9,0,6]                             19.6213006264183 	(obj:0)
r[9,0,7]                             19.1896320126371 	(obj:0)
r[9,0,8]                              18.767460108359 	(obj:0)
r[9,0,9]                             14.1234886225631 	(obj:0)
r[9,0,10]                            10.4468371615228 	(obj:0)
r[10,0,0]                                         100 	(obj:0)
r[10,1,0]                                          42 	(obj:0)
r[10,0,1]                                        92.4 	(obj:0)
r[10,1,1]                            38.7869680238018 	(obj:0)
r[10,0,2]                            72.8569604224332 	(obj:0)
r[10,1,2]                            32.1237216285604 	(obj:0)
r[10,0,3]                            59.4087551097183 	(obj:0)
r[10,1,3]                            26.5196355970287 	(obj:0)
r[10,0,4]                            30.1106195725399 	(obj:0)
r[10,1,4]                            21.7294697497904 	(obj:0)
r[10,0,5]                            23.7051608542492 	(obj:0)
r[10,1,5]                            17.6703412104804 	(obj:0)
r[10,0,6]                             19.031734613702 	(obj:0)
r[10,1,6]                            14.2688381571712 	(obj:0)
r[10,0,7]                            14.6088887734085 	(obj:0)
r[10,1,7]                             11.094968499232 	(obj:0)
r[10,0,8]                            11.9898235459495 	(obj:0)
r[10,1,8]                            8.71836934966078 	(obj:0)
r[10,0,9]                            9.90510516565061 	(obj:0)
r[10,1,9]                              6.697217494269 	(obj:0)
r[10,0,10]                           7.95020582397783 	(obj:0)
r[10,1,10]                           4.81471008342979 	(obj:0)
r[11,0,0]                                         100 	(obj:0)
r[11,1,0]                                          42 	(obj:0)
r[11,0,1]                            62.1679701960917 	(obj:0)
r[11,1,1]                            36.9546496725218 	(obj:0)
r[11,0,2]                            45.9906761968851 	(obj:0)
r[11,1,2]                            30.6278735252163 	(obj:0)
r[11,0,3]                            34.1371704327582 	(obj:0)
r[11,1,3]                            25.0671346736391 	(obj:0)
r[11,0,4]                            26.0681797891584 	(obj:0)
r[11,1,4]                            20.4459834147676 	(obj:0)
r[11,0,5]                            22.3804621921454 	(obj:0)
r[11,1,5]                              17.26307619153 	(obj:0)
r[11,0,6]                             17.893082898346 	(obj:0)
r[11,1,6]                            13.9199010314519 	(obj:0)
r[11,0,7]                            14.6969646262289 	(obj:0)
r[11,1,7]                            11.1802272917463 	(obj:0)
r[11,0,8]                            12.0661155808001 	(obj:0)
r[11,1,8]                            8.79467111086271 	(obj:0)
